cost: 627.95
Route 1:           0   21   47   34   30   16    7   39   18   15   28    9   25    2   10   48   43    0
Route 2:           0   49   45   12   14    4   38   50   41   33   24   42    3   27   22   19    1    6   36    0
Route 3:           0   17    5    0
Route 4:           0   32   31   20    8   44   35   13   37   29   40   11   23   46   26    0
